105400
2,38,16,33,27,7,51,72,56,17,77,9,20,67,76,14,70,62,80,26,36,66,71,21,54,46,45,29,10,1,64,73,13,37,18,65,50,4,63,39,52,41,78,69,25,23,12,3,57,34,49,47,60,81,43,55,42,15,61,6,79,28,8,83,53,59,68,44,22,19,31,24,48,5,32,58,74,40,82,75,11,35,30